certificates/rado_a5_c202_N40.cnf
c Rad2 upper bound instance: x1 + 5*x2 - x3 = 202, interval [1,40]
p cnf 40 328
1 3 40 0
-1 -3 -40 0
2 4 40 0
-2 -4 -40 0
3 5 40 0
-3 -5 -40 0
4 6 40 0
-4 -6 -40 0
5 7 40 0
-5 -7 -40 0
1 8 39 0
-1 -8 -39 0
6 8 40 0
-6 -8 -40 0
2 9 39 0
-2 -9 -39 0
7 9 40 0
-7 -9 -40 0
3 10 39 0
-3 -10 -39 0
8 10 40 0
-8 -10 -40 0
4 11 39 0
-4 -11 -39 0
9 11 40 0
-9 -11 -40 0
5 12 39 0
-5 -12 -39 0
10 12 40 0
-10 -12 -40 0
1 13 38 0
-1 -13 -38 0
6 13 39 0
-6 -13 -39 0
11 13 40 0
-11 -13 -40 0
2 14 38 0
-2 -14 -38 0
7 14 39 0
-7 -14 -39 0
12 14 40 0
-12 -14 -40 0
3 15 38 0
-3 -15 -38 0
8 15 39 0
-8 -15 -39 0
13 15 40 0
-13 -15 -40 0
4 16 38 0
-4 -16 -38 0
9 16 39 0
-9 -16 -39 0
14 16 40 0
-14 -16 -40 0
5 17 38 0
-5 -17 -38 0
10 17 39 0
-10 -17 -39 0
15 17 40 0
-15 -17 -40 0
1 18 37 0
-1 -18 -37 0
6 18 38 0
-6 -18 -38 0
11 18 39 0
-11 -18 -39 0
16 18 40 0
-16 -18 -40 0
2 19 37 0
-2 -19 -37 0
7 19 38 0
-7 -19 -38 0
12 19 39 0
-12 -19 -39 0
17 19 40 0
-17 -19 -40 0
3 20 37 0
-3 -20 -37 0
8 20 38 0
-8 -20 -38 0
13 20 39 0
-13 -20 -39 0
18 20 40 0
-18 -20 -40 0
4 21 37 0
-4 -21 -37 0
9 21 38 0
-9 -21 -38 0
14 21 39 0
-14 -21 -39 0
19 21 40 0
-19 -21 -40 0
5 22 37 0
-5 -22 -37 0
10 22 38 0
-10 -22 -38 0
15 22 39 0
-15 -22 -39 0
20 22 40 0
-20 -22 -40 0
1 23 36 0
-1 -23 -36 0
6 23 37 0
-6 -23 -37 0
11 23 38 0
-11 -23 -38 0
16 23 39 0
-16 -23 -39 0
21 23 40 0
-21 -23 -40 0
2 24 36 0
-2 -24 -36 0
7 24 37 0
-7 -24 -37 0
12 24 38 0
-12 -24 -38 0
17 24 39 0
-17 -24 -39 0
22 24 40 0
-22 -24 -40 0
3 25 36 0
-3 -25 -36 0
8 25 37 0
-8 -25 -37 0
13 25 38 0
-13 -25 -38 0
18 25 39 0
-18 -25 -39 0
23 25 40 0
-23 -25 -40 0
4 26 36 0
-4 -26 -36 0
9 26 37 0
-9 -26 -37 0
14 26 38 0
-14 -26 -38 0
19 26 39 0
-19 -26 -39 0
24 26 40 0
-24 -26 -40 0
5 27 36 0
-5 -27 -36 0
10 27 37 0
-10 -27 -37 0
15 27 38 0
-15 -27 -38 0
20 27 39 0
-20 -27 -39 0
25 27 40 0
-25 -27 -40 0
1 28 35 0
-1 -28 -35 0
6 28 36 0
-6 -28 -36 0
11 28 37 0
-11 -28 -37 0
16 28 38 0
-16 -28 -38 0
21 28 39 0
-21 -28 -39 0
26 28 40 0
-26 -28 -40 0
2 29 35 0
-2 -29 -35 0
7 29 36 0
-7 -29 -36 0
12 29 37 0
-12 -29 -37 0
17 29 38 0
-17 -29 -38 0
22 29 39 0
-22 -29 -39 0
27 29 40 0
-27 -29 -40 0
3 30 35 0
-3 -30 -35 0
8 30 36 0
-8 -30 -36 0
13 30 37 0
-13 -30 -37 0
18 30 38 0
-18 -30 -38 0
23 30 39 0
-23 -30 -39 0
28 30 40 0
-28 -30 -40 0
4 31 35 0
-4 -31 -35 0
9 31 36 0
-9 -31 -36 0
14 31 37 0
-14 -31 -37 0
19 31 38 0
-19 -31 -38 0
24 31 39 0
-24 -31 -39 0
29 31 40 0
-29 -31 -40 0
5 32 35 0
-5 -32 -35 0
10 32 36 0
-10 -32 -36 0
15 32 37 0
-15 -32 -37 0
20 32 38 0
-20 -32 -38 0
25 32 39 0
-25 -32 -39 0
30 32 40 0
-30 -32 -40 0
1 33 34 0
-1 -33 -34 0
6 33 35 0
-6 -33 -35 0
11 33 36 0
-11 -33 -36 0
16 33 37 0
-16 -33 -37 0
21 33 38 0
-21 -33 -38 0
26 33 39 0
-26 -33 -39 0
31 33 40 0
-31 -33 -40 0
2 34 0
-2 -34 0
7 34 35 0
-7 -34 -35 0
12 34 36 0
-12 -34 -36 0
17 34 37 0
-17 -34 -37 0
22 34 38 0
-22 -34 -38 0
27 34 39 0
-27 -34 -39 0
32 34 40 0
-32 -34 -40 0
3 34 35 0
-3 -34 -35 0
8 35 0
-8 -35 0
13 35 36 0
-13 -35 -36 0
18 35 37 0
-18 -35 -37 0
23 35 38 0
-23 -35 -38 0
28 35 39 0
-28 -35 -39 0
33 35 40 0
-33 -35 -40 0
4 34 36 0
-4 -34 -36 0
9 35 36 0
-9 -35 -36 0
14 36 0
-14 -36 0
19 36 37 0
-19 -36 -37 0
24 36 38 0
-24 -36 -38 0
29 36 39 0
-29 -36 -39 0
34 36 40 0
-34 -36 -40 0
5 34 37 0
-5 -34 -37 0
10 35 37 0
-10 -35 -37 0
15 36 37 0
-15 -36 -37 0
20 37 0
-20 -37 0
25 37 38 0
-25 -37 -38 0
30 37 39 0
-30 -37 -39 0
35 37 40 0
-35 -37 -40 0
1 33 38 0
-1 -33 -38 0
6 34 38 0
-6 -34 -38 0
11 35 38 0
-11 -35 -38 0
16 36 38 0
-16 -36 -38 0
21 37 38 0
-21 -37 -38 0
26 38 0
-26 -38 0
31 38 39 0
-31 -38 -39 0
36 38 40 0
-36 -38 -40 0
2 33 39 0
-2 -33 -39 0
7 34 39 0
-7 -34 -39 0
12 35 39 0
-12 -35 -39 0
17 36 39 0
-17 -36 -39 0
22 37 39 0
-22 -37 -39 0
27 38 39 0
-27 -38 -39 0
32 39 0
-32 -39 0
37 39 40 0
-37 -39 -40 0
3 33 40 0
-3 -33 -40 0
8 34 40 0
-8 -34 -40 0
13 35 40 0
-13 -35 -40 0
18 36 40 0
-18 -36 -40 0
23 37 40 0
-23 -37 -40 0
28 38 40 0
-28 -38 -40 0
33 39 40 0
-33 -39 -40 0
38 40 0
-38 -40 0
