certificates/rado_a5_c202_N40.drat
-40 0
38 0
-26 0
24 0
28 0
-12 0
-36 0
-16 0
10 0
14 0
34 0
18 0
4 0
-22 0
-2 0
-6 0
-30 0
20 0
8 0
32 0
0
